
Gurobi 10.0.1 (linux64) logging started Sun Nov 26 15:37:22 2023

Set parameter LogFile to value "ArtificialInstance/ExperimentV2/S2T4K2/BaRo/gurobi1.txt"
Gurobi Optimizer version 10.0.1 build v10.0.1rc0 (linux64)

CPU model: AMD EPYC 7H12 64-Core Processor, instruction set [SSE2|AVX|AVX2]
Thread count: 128 physical cores, 128 logical processors, using up to 32 threads

Academic license 656792 - for non-commercial use only - registered to b.___@student.vu.nl
Optimize a model with 2052 rows, 3121 columns and 10722 nonzeros
Model fingerprint: 0x27d852d7
Variable types: 1 continuous, 3120 integer (3120 binary)
Coefficient statistics:
  Matrix range     [1e+00, 4e+01]
  Objective range  [1e+00, 2e+01]
  Bounds range     [1e+00, 1e+00]
  RHS range        [1e+00, 1e+00]
Found heuristic solution: objective 462.8570771
Presolve time: 0.02s
Presolved: 2052 rows, 3121 columns, 10722 nonzeros
Variable types: 1 continuous, 3120 integer (3120 binary)

Root relaxation: objective 4.083931e+01, 1894 iterations, 0.05 seconds (0.04 work units)

    Nodes    |    Current Node    |     Objective Bounds      |     Work
 Expl Unexpl |  Obj  Depth IntInf | Incumbent    BestBd   Gap | It/Node Time

     0     0   40.83931    0  378  462.85708   40.83931  91.2%     -    0s
H    0     0                     317.0627897   40.83931  87.1%     -    0s
H    0     0                     268.7103108   40.83931  84.8%     -    0s
H    0     0                      87.5865243   40.83931  53.4%     -    0s
H    0     0                      87.2004436   47.26384  45.8%     -    0s
H    0     0                      61.8809923   47.26384  23.6%     -    0s
     0     0   47.26384    0  380   61.88099   47.26384  23.6%     -    0s
H    0     0                      58.8345846   47.26384  19.7%     -    0s
     0     0   49.61443    0  621   58.83458   49.61443  15.7%     -    0s
     0     0   51.29544    0  494   58.83458   51.29544  12.8%     -    0s
     0     0   51.31464    0  475   58.83458   51.31464  12.8%     -    0s
     0     0   51.77628    0  495   58.83458   51.77628  12.0%     -    0s
     0     0   51.87100    0  547   58.83458   51.87100  11.8%     -    0s
     0     0   51.92297    0  548   58.83458   51.92297  11.7%     -    0s
     0     0   51.92297    0  550   58.83458   51.92297  11.7%     -    0s
     0     0   52.24275    0  555   58.83458   52.24275  11.2%     -    0s
     0     0   52.26791    0  589   58.83458   52.26791  11.2%     -    0s
     0     0   52.26791    0  592   58.83458   52.26791  11.2%     -    0s
     0     0   53.27277    0  523   58.83458   53.27277  9.45%     -    0s
     0     0   53.27336    0  485   58.83458   53.27336  9.45%     -    0s
     0     0   53.50522    0  595   58.83458   53.50522  9.06%     -    0s
     0     0   53.54689    0  566   58.83458   53.54689  8.99%     -    1s
     0     0   53.54732    0  593   58.83458   53.54732  8.99%     -    1s
     0     0   54.04885    0  582   58.83458   54.04885  8.13%     -    1s
     0     0   54.10050    0  375   58.83458   54.10050  8.05%     -    1s
     0     0   54.10050    0  379   58.83458   54.10050  8.05%     -    1s
     0     0   54.63807    0  547   58.83458   54.63807  7.13%     -    1s
     0     0   54.64105    0  548   58.83458   54.64105  7.13%     -    1s
     0     0   54.64821    0  572   58.83458   54.64821  7.12%     -    1s
     0     0   54.64918    0  572   58.83458   54.64918  7.11%     -    1s
     0     0   54.76787    0  602   58.83458   54.76787  6.91%     -    1s
     0     0   54.77357    0  598   58.83458   54.77357  6.90%     -    1s
     0     0   54.77357    0  603   58.83458   54.77357  6.90%     -    1s
     0     0   54.77357    0  605   58.83458   54.77357  6.90%     -    1s
     0     0   54.77357    0  604   58.83458   54.77357  6.90%     -    1s
     0     0   54.77357    0  624   58.83458   54.77357  6.90%     -    1s
     0     0   54.77357    0  528   58.83458   54.77357  6.90%     -    1s
     0     0   54.78556    0  375   58.83458   54.78556  6.88%     -    1s
     0     0   54.78556    0  416   58.83458   54.78556  6.88%     -    1s
     0     0   54.78556    0  545   58.83458   54.78556  6.88%     -    2s
     0     0   54.78556    0  548   58.83458   54.78556  6.88%     -    2s
     0     0   54.78556    0  570   58.83458   54.78556  6.88%     -    2s
     0     0   54.78818    0  568   58.83458   54.78818  6.88%     -    2s
     0     0   54.78818    0  572   58.83458   54.78818  6.88%     -    2s
     0     0   55.24106    0  423   58.83458   55.24106  6.11%     -    2s
     0     0   55.25357    0  391   58.83458   55.25357  6.09%     -    2s
     0     0   55.26108    0  419   58.83458   55.26108  6.07%     -    2s
     0     0   55.26108    0  419   58.83458   55.26108  6.07%     -    2s
     0     0   55.27086    0  556   58.83458   55.27086  6.06%     -    2s
     0     0   55.27086    0  465   58.83458   55.27086  6.06%     -    2s
     0     2   55.27086    0  459   58.83458   55.27086  6.06%     -    2s

Cutting planes:
  Gomory: 20
  Zero half: 82
  RLT: 46

Explored 53 nodes (23827 simplex iterations) in 2.91 seconds (1.59 work units)
Thread count was 32 (of 128 available processors)

Solution count 7: 58.8346 61.881 87.2004 ... 462.857

Optimal solution found (tolerance 1.00e-04)
Best objective 5.883458460506e+01, best bound 5.883458460506e+01, gap 0.0000%
